#######################################
### Exact MIP solver for the HHCRSP ###
#######################################
-- Instance file: new-instances/HHCRSP_75_15_33_0.4_C_C.txt
-- Max threads: 4
-- Time limit: 999999 seconds
-- Use initial solution: No
Trivial flow violations prevented generating 20250 variables.
Model exported.
Version identifier: 20.1.0.0 | 2020-11-10 | 9bedb6d68
CPXPARAM_Threads                                 4
CPXPARAM_TimeLimit                               999999
Parallel mode: deterministic, using up to 4 threads for concurrent optimization:
 * Starting dual Simplex on 1 thread...
 * Starting Barrier on 3 threads...
Tried aggregator 1 time.
LP Presolve eliminated 3222 rows and 867 columns.
Reduced LP has 23858 rows, 22854 columns, and 248579 nonzeros.
Presolve time = 0.11 sec. (66.54 ticks)
Symmetry aggregator did 24378 additional substitutions.

Iteration log . . .
Iteration:     1   Dual objective     =             0.000000

Dual crossover.
  Dual:  Fixing 168 variables.
      167 DMoves:  Infeasibility  6.76125907e-14  Objective  1.49000000e+02
        0 DMoves:  Infeasibility  1.06914486e-13  Objective  1.49000000e+02
  Dual:  Pushed 9, exchanged 159.
  Primal:  Fixing 84 variables.
       83 PMoves:  Infeasibility  7.21644966e-16  Objective  1.49000000e+02
        0 PMoves:  Infeasibility  9.99200722e-16  Objective  1.49000000e+02
  Primal:  Pushed 47, exchanged 37.

Dual simplex solved model.


Solution status from MIP model:
-- Processing time: 0.212 sec.
-- Memory used: 85.3789 MB
-- Best bound: inf
-- Obj value: 149
-- Gap: inf%
-- Total distance: 447
-- Total tardiness: 0
-- Largest tardiness: 0
